(set-info :smt-lib-version 2.6)
(set-logic QF_LRA)
(set-info :source |
TLP-GP automated DTP to SMT-LIB encoding for planning
by F.Maris and P.Regnier, IRIT - Universite Paul Sabatier, Toulouse

|)
(set-info :category "industrial")
(set-info :status sat)
(declare-fun St_spy_variable () Real)
(declare-fun t_Init_0 () Real)
(declare-fun t_Goal_4 () Real)
(declare-fun t_C_rb_ga1_gc1_3 () Real)
(declare-fun t_A_ra_ga2_gb1_1 () Real)
(declare-fun t_B_ra_rb_gb2_2 () Real)
(declare-fun t_C_rb_ga1_gc2_3 () Real)
(declare-fun t_A_ra_ga3_gb1_1 () Real)
(declare-fun t_B_ra_rb_gb3_2 () Real)
(declare-fun t_A_ra_ga1_gb1_1 () Real)
(declare-fun t_B_ra_rb_gb1_2 () Real)
(declare-fun t_C_rb_ga1_gc3_3 () Real)
(assert (let ((?v_6 (- t_Goal_4 t_C_rb_ga1_gc1_3)) (?v_7 (- t_Goal_4 t_A_ra_ga2_gb1_1)) (?v_12 (- t_Goal_4 t_B_ra_rb_gb2_2)) (?v_14 (- t_Goal_4 t_C_rb_ga1_gc2_3)) (?v_15 (- t_Goal_4 t_A_ra_ga3_gb1_1)) (?v_17 (- t_Goal_4 t_B_ra_rb_gb3_2)) (?v_0 (- t_Goal_4 t_A_ra_ga1_gb1_1)) (?v_1 (- t_Goal_4 t_B_ra_rb_gb1_2)) (?v_20 (- t_Goal_4 t_C_rb_ga1_gc3_3)) (?v_18 (- t_B_ra_rb_gb1_2 t_A_ra_ga1_gb1_1))) (let ((?v_8 (< ?v_18 5)) (?v_16 (- t_B_ra_rb_gb3_2 t_A_ra_ga1_gb1_1))) (let ((?v_9 (< ?v_16 5)) (?v_11 (- t_B_ra_rb_gb2_2 t_A_ra_ga1_gb1_1))) (let ((?v_10 (< ?v_11 5)) (?v_19 (- t_C_rb_ga1_gc3_3 t_B_ra_rb_gb1_2))) (let ((?v_2 (< ?v_19 4)) (?v_13 (- t_C_rb_ga1_gc2_3 t_B_ra_rb_gb1_2))) (let ((?v_3 (< ?v_13 4)) (?v_5 (- t_C_rb_ga1_gc1_3 t_B_ra_rb_gb1_2))) (let ((?v_4 (< ?v_5 4)) (?v_21 (- t_A_ra_ga3_gb1_1 t_A_ra_ga1_gb1_1))) (let ((?v_64 (< ?v_21 5)) (?v_63 (> ?v_21 5))) (let ((?v_48 (or ?v_64 ?v_63)) (?v_22 (- t_A_ra_ga2_gb1_1 t_A_ra_ga1_gb1_1))) (let ((?v_46 (< ?v_22 5)) (?v_45 (> ?v_22 5)) (?v_33 (< ?v_18 1)) (?v_23 (> ?v_18 1))) (let ((?v_49 (or ?v_33 ?v_23)) (?v_30 (< ?v_0 6)) (?v_24 (- t_A_ra_ga1_gb1_1 t_A_ra_ga3_gb1_1))) (let ((?v_54 (> ?v_24 5)) (?v_25 (- t_A_ra_ga1_gb1_1 t_A_ra_ga2_gb1_1))) (let ((?v_42 (> ?v_25 5)) (?v_51 (- t_C_rb_ga1_gc3_3 t_A_ra_ga1_gb1_1))) (let ((?v_50 (< ?v_51 4)) (?v_53 (- t_C_rb_ga1_gc2_3 t_A_ra_ga1_gb1_1))) (let ((?v_52 (< ?v_53 4)) (?v_40 (- t_C_rb_ga1_gc1_3 t_A_ra_ga1_gb1_1))) (let ((?v_41 (< ?v_40 4)) (?v_26 (- t_B_ra_rb_gb3_2 t_B_ra_rb_gb1_2))) (let ((?v_67 (< ?v_26 4)) (?v_66 (> ?v_26 4))) (let ((?v_31 (or ?v_67 ?v_66)) (?v_27 (- t_B_ra_rb_gb2_2 t_B_ra_rb_gb1_2))) (let ((?v_57 (< ?v_27 4)) (?v_56 (> ?v_27 4))) (let ((?v_32 (or ?v_57 ?v_56)) (?v_28 (- t_B_ra_rb_gb1_2 t_B_ra_rb_gb3_2))) (let ((?v_38 (> ?v_28 4)) (?v_29 (- t_B_ra_rb_gb1_2 t_B_ra_rb_gb2_2))) (let ((?v_39 (> ?v_29 4)) (?v_35 (- t_B_ra_rb_gb1_2 t_A_ra_ga3_gb1_1))) (let ((?v_34 (> ?v_35 1)) (?v_37 (- t_B_ra_rb_gb1_2 t_A_ra_ga2_gb1_1))) (let ((?v_36 (> ?v_37 1)) (?v_59 (or ?v_23 ?v_33)) (?v_62 (< ?v_35 1))) (let ((?v_60 (or ?v_34 ?v_62)) (?v_44 (< ?v_37 1)) (?v_43 (- t_A_ra_ga3_gb1_1 t_A_ra_ga2_gb1_1)) (?v_47 (- t_A_ra_ga2_gb1_1 t_A_ra_ga3_gb1_1)) (?v_65 (or ?v_50 (> ?v_51 4))) (?v_61 (> ?v_53 4)) (?v_55 (- t_B_ra_rb_gb3_2 t_B_ra_rb_gb2_2)) (?v_58 (- t_B_ra_rb_gb2_2 t_B_ra_rb_gb3_2))) (and (= St_spy_variable (+ 1 t_Init_0)) (>= t_Goal_4 t_Init_0) (>= (- t_C_rb_ga1_gc1_3 t_Init_0) 0) (>= ?v_6 1) (>= (- t_A_ra_ga2_gb1_1 t_Init_0) 0) (>= ?v_7 5) (>= (- t_B_ra_rb_gb2_2 t_Init_0) 0) (>= ?v_12 4) (>= (- t_C_rb_ga1_gc2_3 t_Init_0) 0) (>= ?v_14 1) (>= (- t_A_ra_ga3_gb1_1 t_Init_0) 0) (>= ?v_15 5) (>= (- t_B_ra_rb_gb3_2 t_Init_0) 0) (>= ?v_17 4) (>= (- t_A_ra_ga1_gb1_1 t_Init_0) 0) (>= ?v_0 5) (>= (- t_B_ra_rb_gb1_2 t_Init_0) 0) (>= ?v_1 4) (>= (- t_C_rb_ga1_gc3_3 t_Init_0) 0) (>= ?v_20 1) ?v_8 ?v_9 ?v_10 (>= ?v_0 6) ?v_2 ?v_3 ?v_4 (>= ?v_1 5) ?v_2 ?v_3 ?v_4 ?v_4 (>= ?v_5 0) (>= ?v_6 2) (>= ?v_7 6) ?v_8 ?v_9 ?v_10 ?v_10 (>= ?v_11 0) (>= ?v_12 5) ?v_2 ?v_3 ?v_3 (>= ?v_13 0) (>= ?v_14 2) (>= ?v_15 6) ?v_8 ?v_9 ?v_9 (>= ?v_16 0) (>= ?v_17 5) ?v_8 (>= ?v_18 0) ?v_2 (>= ?v_19 0) (>= ?v_20 2) ?v_48 (or ?v_46 ?v_45) ?v_49 (or ?v_30 ?v_23) (or ?v_54 (< ?v_24 5)) (or ?v_42 (< ?v_25 5)) (or ?v_50 (< ?v_20 2)) (or ?v_52 (< ?v_14 2)) (or ?v_41 (< ?v_6 2)) ?v_31 ?v_32 (or ?v_38 (< ?v_28 4)) (or ?v_39 (< ?v_29 4)) (or ?v_23 ?v_30) (or ?v_34 (< ?v_15 6)) (or ?v_36 (< ?v_7 6)) ?v_31 ?v_32 ?v_59 ?v_60 (or ?v_36 ?v_44) (or ?v_38 (< (- t_C_rb_ga1_gc1_3 t_B_ra_rb_gb3_2) 4)) (or ?v_39 (< (- t_C_rb_ga1_gc1_3 t_B_ra_rb_gb2_2) 4)) (or (> ?v_40 4) ?v_41) (or (< ?v_37 5) ?v_42) (or (< (- t_B_ra_rb_gb3_2 t_A_ra_ga2_gb1_1) 5) ?v_42) (or (< ?v_43 5) (> ?v_43 5)) (or (< (- t_B_ra_rb_gb2_2 t_A_ra_ga2_gb1_1) 5) ?v_42) (or ?v_44 ?v_36) (or ?v_45 ?v_46) (or (> ?v_47 5) (< ?v_47 5)) ?v_48 ?v_49 ?v_65 (or ?v_52 ?v_61) (or ?v_54 (< (- t_B_ra_rb_gb2_2 t_A_ra_ga3_gb1_1) 5)) (or (< (- t_C_rb_ga1_gc3_3 t_B_ra_rb_gb2_2) 4) ?v_39) (or (< ?v_55 4) (> ?v_55 4)) (or (< (- t_C_rb_ga1_gc2_3 t_B_ra_rb_gb2_2) 4) ?v_39) (or ?v_56 ?v_57) (or (> ?v_58 4) (< ?v_58 4)) ?v_31 ?v_59 ?v_60 (or ?v_38 (< (- t_C_rb_ga1_gc2_3 t_B_ra_rb_gb3_2) 4)) (or ?v_61 ?v_52) (or (< ?v_35 5) ?v_54) (or (< (- t_B_ra_rb_gb3_2 t_A_ra_ga3_gb1_1) 5) ?v_54) (or ?v_62 ?v_34) (or ?v_63 ?v_64) ?v_49 ?v_65 (or (< (- t_C_rb_ga1_gc3_3 t_B_ra_rb_gb3_2) 4) ?v_38) (or ?v_66 ?v_67) ?v_49 ?v_65)))))))))))))))))))))))))))
(check-sat)
(exit)
